pair_coeff 1 1 lj/cut 0.0049997742831975915 3.114
pair_coeff 1 2 lj/cut 0.013834489227434134 2.8425000000000002
pair_coeff 1 3 lj/cut 0.021371149951704277 3.2725
pair_coeff 1 4 lj/cut 0.021371149951704277 3.2725
pair_coeff 1 5 lj/cut 0.01615503263974823 3.1159999999999997
pair_coeff 1 6 lj/cut 0.34966824 2.617
pair_coeff 1 7 lj/cut 0.017089596636926746 2.9295
pair_coeff 1 8 morse 1.19001245 1.72 3.15
pair_coeff 2 2 lj/cut 0.03828034654028145 2.571
pair_coeff 2 3 lj/cut 0.05913445828511372 3.0010000000000003
pair_coeff 2 4 lj/cut 0.05913445828511372 3.0010000000000003
pair_coeff 2 5 lj/cut 0.04470134297352861 2.8445
pair_coeff 2 6 lj/cut 0.08071679121505614 2.794
pair_coeff 2 7 lj/cut 0.04728730282270907 2.6580000000000004
pair_coeff 2 8 lj/cut 0.10610568876028087 3.1505
pair_coeff 3 3 lj/cut 0.09134933386755448 3.431
pair_coeff 3 4 lj/cut 0.09134933386755448 3.431
pair_coeff 3 5 lj/cut 0.06905344230818589 3.2744999999999997
pair_coeff 3 6 lj/cut 0.1246891461129358 3.224
pair_coeff 3 7 lj/cut 0.07304816410798537 3.088
pair_coeff 3 8 lj/cut 0.1639092378436435 3.5805
pair_coeff 4 4 lj/cut 0.09134933386755448 3.431
pair_coeff 4 5 lj/cut 0.06905344230818589 3.2744999999999997
pair_coeff 4 6 lj/cut 0.1246891461129358 3.224
pair_coeff 4 7 lj/cut 0.07304816410798537 3.088
pair_coeff 4 8 lj/cut 0.1639092378436435 3.5805
pair_coeff 5 5 lj/cut 0.052199372373350095 3.118
pair_coeff 5 6 lj/cut 0.09425591181705109 3.0675
pair_coeff 5 7 lj/cut 0.05521909106927025 2.9314999999999998
pair_coeff 5 8 lj/cut 0.12390344428373405 3.424
pair_coeff 6 6 lj/cut 0.17019700637242613 3.017
pair_coeff 6 7 lj/cut 0.09970858923775247 2.8810000000000002
pair_coeff 6 8 lj/cut 0.22373127467331305 3.3735
pair_coeff 7 7 lj/cut 0.05841349962424213 2.745
pair_coeff 7 8 lj/cut 0.1310712229404658 3.2375
pair_coeff 8 8 lj/cut 0.2941043695998583 3.73
pair_coeff * 6 coul/long 
pair_coeff * 7 coul/long 
pair_coeff * 8 coul/long 
